DATASET = "thpack5";
INSTANCE = "091";

WIDTH = 233;
HEIGHT = 220;
LENGTH = 587;

NO_OF_SHAPES = 12;
size = [|
  86,65,57 |
  61,37,32 |
  39,33,27 |
  85,33,26 |
  101,94,42 |
  65,53,46 |
  76,72,39 |
  47,42,25 |
  93,76,60 |
  95,74,51 |
  97,66,32 |
  116,78,37 |
|];

verticality = [|
  1,1,1 |
  1,1,1 |
  1,1,1 |
  0,1,1 |
  0,0,1 |
  1,1,1 |
  1,1,1 |
  1,1,1 |
  1,1,1 |
  1,1,1 |
  0,0,1 |
  0,0,1 |
|];

box_count = [
  7,
  10,
  10,
  11,
  6,
  15,
  10,
  14,
  15,
  14,
  14,
  12,
];
